\ SCIP STATISTICS
\   Problem name     : SetCover-100-150
\   Variables        : 150 (150 binary, 0 integer, 0 implicit integer, 0 continuous)
\   Constraints      : 100
Minimize
 Obj: +62 x0 +53 x1 +87 x2 +87 x3 +90 x4 +20 x5 +76 x6 +78 x7 +49 x8 +44 x9 +77 x10 +44 x11 +14 x12 +80 x13
      +16 x14 +68 x15 +52 x16 +89 x17 +79 x18 +4 x19 +34 x20 +33 x21 +25 x22 +59 x23 +1 x24 +26 x25 +79 x26
      +8 x27 +23 x28 +90 x29 +5 x30 +20 x31 +19 x32 +18 x33 +82 x34 +22 x35 +39 x36 +33 x37 +8 x38 +91 x39
      +18 x40 +53 x41 +22 x42 +95 x43 +79 x44 +84 x45 +13 x46 +47 x47 +68 x48 +14 x49 +60 x50 +31 x51
      +13 x52 +15 x53 +37 x54 +56 x55 +39 x56 +93 x57 +22 x58 +90 x59 +30 x60 +19 x61 +18 x62 +33 x63
      +93 x64 +75 x65 +2 x66 +6 x67 +15 x68 +44 x69 +97 x70 +52 x71 +83 x72 +34 x73 +59 x74 +6 x75 +15 x76
      +26 x77 +48 x78 +99 x79 +51 x80 +55 x81 +61 x82 +96 x83 +97 x84 +38 x85 +83 x86 +1 x87 +85 x88 +78 x89
      +23 x90 +46 x91 +53 x92 +23 x93 +22 x94 +42 x95 +29 x96 +9 x97 +49 x98 +23 x99 +64 x100 +19 x101
      +98 x102 +10 x103 +64 x104 +77 x105 +38 x106 +98 x107 +7 x108 +9 x109 +37 x110 +70 x111 +6 x112
      +31 x113 +39 x114 +62 x115 +64 x116 +59 x117 +99 x118 +23 x119 +80 x120 +32 x121 +20 x122 +78 x123
      +15 x124 +68 x125 +84 x126 +99 x127 +98 x128 +74 x129 +43 x130 +88 x131 +81 x132 +91 x133 +60 x134
      +43 x135 +33 x136 +57 x137 +70 x138 +64 x139 +10 x140 +46 x141 +29 x142 +85 x143 +68 x144 +68 x145
      +31 x146 +6 x147 +18 x148 +71 x149
Subject to
 c0: +1 x7 +1 x15 +1 x21 +1 x23 +1 x49 +1 x72 +1 x88 +1 x110 +1 x119 +1 x141 >= +1
 c1: +1 x0 +1 x16 +1 x34 +1 x60 +1 x93 +1 x99 +1 x103 +1 x105 +1 x106 +1 x111 +1 x130 +1 x138 +1 x148
  >= +1
 c2: +1 x8 +1 x17 +1 x42 +1 x43 +1 x54 +1 x68 +1 x75 +1 x98 +1 x106 +1 x110 +1 x133 +1 x140 +1 x146 +1 x147
  >= +1
 c3: +1 x3 +1 x28 +1 x32 +1 x41 +1 x45 +1 x46 +1 x51 +1 x61 +1 x64 +1 x96 +1 x110 +1 x115 +1 x124 +1 x126
  +1 x133 +1 x142 +1 x143 >= +1
 c4: +1 x3 +1 x10 +1 x15 +1 x23 +1 x30 +1 x38 +1 x40 +1 x43 +1 x46 +1 x48 +1 x59 +1 x61 +1 x76 +1 x80
  >= +1
 c5: +1 x9 +1 x31 +1 x38 +1 x45 +1 x59 +1 x66 +1 x85 +1 x120 +1 x135 +1 x138 >= +1
 c6: +1 x3 +1 x14 +1 x17 +1 x31 +1 x34 +1 x59 +1 x69 +1 x75 +1 x81 +1 x87 +1 x88 +1 x95 +1 x100 +1 x111
  +1 x124 +1 x129 +1 x132 +1 x146 >= +1
 c7: +1 x9 +1 x21 +1 x51 +1 x52 +1 x82 +1 x136 +1 x142 >= +1
 c8: +1 x1 +1 x16 +1 x41 +1 x44 +1 x59 +1 x64 +1 x69 +1 x92 +1 x94 +1 x105 +1 x106 +1 x107 +1 x117 +1 x128
  +1 x143 +1 x144 >= +1
 c9: +1 x7 +1 x10 +1 x13 +1 x14 +1 x43 +1 x44 +1 x45 +1 x60 +1 x62 +1 x70 +1 x87 +1 x93 +1 x123 +1 x124
  +1 x125 +1 x141 +1 x145 >= +1
 c10: +1 x3 +1 x25 +1 x31 +1 x33 +1 x37 +1 x39 +1 x51 +1 x65 +1 x69 +1 x74 +1 x77 +1 x79 +1 x96 +1 x103
  +1 x123 +1 x125 +1 x142 +1 x147 >= +1
 c11: +1 x3 +1 x12 +1 x15 +1 x26 +1 x29 +1 x45 +1 x60 +1 x62 +1 x107 +1 x117 +1 x127 +1 x128 +1 x135 +1 x138
  +1 x147 >= +1
 c12: +1 x2 +1 x22 +1 x36 +1 x39 +1 x46 +1 x57 +1 x72 +1 x87 +1 x93 +1 x97 +1 x120 +1 x121 +1 x127 +1 x140
  +1 x142 +1 x147 >= +1
 c13: +1 x7 +1 x16 +1 x17 +1 x20 +1 x36 +1 x46 +1 x52 +1 x61 +1 x68 +1 x83 +1 x84 +1 x85 +1 x91 +1 x95
  +1 x99 +1 x128 +1 x130 +1 x144 >= +1
 c14: +1 x9 +1 x12 +1 x28 +1 x30 +1 x53 +1 x73 +1 x74 +1 x88 +1 x95 +1 x115 +1 x125 +1 x131 >= +1
 c15: +1 x0 +1 x24 +1 x28 +1 x35 +1 x54 +1 x55 +1 x57 +1 x63 +1 x70 +1 x80 +1 x81 +1 x93 +1 x94 +1 x99
  +1 x106 +1 x115 +1 x117 +1 x129 +1 x132 +1 x136 +1 x142 >= +1
 c16: +1 x10 +1 x36 +1 x50 +1 x76 +1 x77 +1 x79 +1 x89 +1 x91 +1 x103 +1 x104 +1 x109 +1 x134 >= +1
 c17: +1 x5 +1 x15 +1 x36 +1 x54 +1 x70 +1 x79 +1 x87 +1 x98 >= +1
 c18: +1 x9 +1 x10 +1 x13 +1 x15 +1 x32 +1 x37 +1 x42 +1 x61 +1 x67 +1 x83 +1 x84 +1 x104 +1 x105 +1 x111
  +1 x130 +1 x149 >= +1
 c19: +1 x9 +1 x14 +1 x20 +1 x28 +1 x49 +1 x54 +1 x58 +1 x59 +1 x60 +1 x64 +1 x87 +1 x96 +1 x100 +1 x113
  +1 x114 +1 x123 +1 x134 >= +1
 c20: +1 x3 +1 x12 +1 x15 +1 x35 +1 x42 +1 x66 +1 x67 +1 x68 +1 x71 +1 x79 +1 x82 +1 x84 +1 x90 +1 x108
  +1 x115 +1 x121 +1 x126 +1 x142 >= +1
 c21: +1 x9 +1 x12 +1 x22 +1 x28 +1 x34 +1 x43 +1 x69 +1 x73 +1 x139 +1 x145 +1 x149 >= +1
 c22: +1 x2 +1 x11 +1 x14 +1 x37 +1 x41 +1 x67 +1 x75 +1 x79 +1 x86 +1 x88 +1 x108 +1 x115 +1 x123 >= +1
 c23: +1 x3 +1 x11 +1 x17 +1 x18 +1 x19 +1 x28 +1 x35 +1 x37 +1 x41 +1 x61 +1 x64 +1 x65 +1 x69 +1 x72
  +1 x102 +1 x119 +1 x130 +1 x135 +1 x138 +1 x140 +1 x144 >= +1
 c24: +1 x4 +1 x11 +1 x14 +1 x28 +1 x33 +1 x46 +1 x48 +1 x70 +1 x72 +1 x74 +1 x89 +1 x113 +1 x115 +1 x125
  +1 x140 +1 x141 +1 x146 >= +1
 c25: +1 x8 +1 x14 +1 x20 +1 x21 +1 x46 +1 x48 +1 x53 +1 x62 +1 x78 +1 x79 +1 x92 +1 x93 +1 x94 +1 x99
  +1 x105 +1 x123 +1 x137 +1 x140 +1 x146 +1 x148 >= +1
 c26: +1 x9 +1 x11 +1 x46 +1 x62 +1 x76 +1 x128 +1 x133 +1 x136 +1 x142 >= +1
 c27: +1 x3 +1 x23 +1 x26 +1 x32 +1 x40 +1 x43 +1 x51 +1 x55 +1 x67 +1 x68 +1 x70 +1 x76 +1 x89 +1 x94
  +1 x103 +1 x105 +1 x117 +1 x118 +1 x136 >= +1
 c28: +1 x9 +1 x26 +1 x34 +1 x64 +1 x82 +1 x89 +1 x91 +1 x113 +1 x118 +1 x142 +1 x148 >= +1
 c29: +1 x3 +1 x13 +1 x17 +1 x25 +1 x27 +1 x29 +1 x44 +1 x47 +1 x50 +1 x53 +1 x71 +1 x88 +1 x93 +1 x96
  +1 x109 +1 x123 +1 x127 +1 x134 +1 x143 >= +1
 c30: +1 x4 +1 x11 +1 x17 +1 x39 +1 x48 +1 x65 +1 x84 +1 x90 +1 x102 +1 x106 +1 x107 +1 x124 +1 x136 +1 x138
  +1 x141 +1 x142 +1 x144 >= +1
 c31: +1 x0 +1 x17 +1 x21 +1 x26 +1 x28 +1 x34 +1 x55 +1 x69 +1 x81 +1 x88 +1 x91 +1 x106 +1 x119 >= +1
 c32: +1 x7 +1 x23 +1 x26 +1 x45 +1 x54 +1 x76 +1 x90 +1 x93 +1 x97 +1 x133 +1 x136 >= +1
 c33: +1 x9 +1 x15 +1 x43 +1 x51 +1 x61 +1 x70 +1 x78 +1 x81 +1 x82 +1 x97 +1 x104 +1 x105 +1 x122 +1 x138
  >= +1
 c34: +1 x7 +1 x33 +1 x42 +1 x46 +1 x48 +1 x50 +1 x53 +1 x55 +1 x67 +1 x71 +1 x94 +1 x95 +1 x104 +1 x112
  +1 x115 +1 x126 +1 x131 +1 x134 +1 x137 +1 x145 +1 x149 >= +1
 c35: +1 x1 +1 x11 +1 x30 +1 x40 +1 x49 +1 x60 +1 x62 +1 x70 +1 x71 +1 x82 +1 x89 +1 x90 +1 x96 +1 x115
  +1 x116 +1 x118 +1 x125 +1 x131 +1 x136 +1 x138 +1 x149 >= +1
 c36: +1 x4 +1 x13 +1 x29 +1 x43 +1 x49 +1 x79 +1 x87 +1 x92 +1 x95 +1 x98 +1 x129 >= +1
 c37: +1 x4 +1 x15 +1 x33 +1 x78 +1 x81 +1 x99 +1 x105 +1 x112 +1 x113 +1 x124 +1 x125 +1 x143 >= +1
 c38: +1 x1 +1 x18 +1 x43 +1 x55 +1 x59 +1 x66 +1 x97 +1 x98 +1 x108 +1 x133 >= +1
 c39: +1 x0 +1 x19 +1 x47 +1 x51 +1 x59 +1 x65 +1 x74 +1 x75 +1 x81 +1 x89 +1 x97 +1 x119 +1 x122 +1 x136
  +1 x138 >= +1
 c40: +1 x7 +1 x11 +1 x12 +1 x23 +1 x44 +1 x58 +1 x69 +1 x75 +1 x76 +1 x82 +1 x85 +1 x87 +1 x91 +1 x104
  +1 x109 +1 x122 +1 x123 >= +1
 c41: +1 x5 +1 x20 +1 x34 +1 x35 +1 x44 +1 x46 +1 x49 +1 x50 +1 x53 +1 x101 +1 x127 +1 x131 +1 x134 +1 x138
  >= +1
 c42: +1 x1 +1 x20 +1 x31 +1 x44 +1 x48 +1 x62 +1 x73 +1 x81 +1 x82 +1 x83 +1 x90 +1 x100 +1 x101 +1 x115
  +1 x123 +1 x128 +1 x129 +1 x130 +1 x136 +1 x137 >= +1
 c43: +1 x5 +1 x13 +1 x27 +1 x29 +1 x30 +1 x34 +1 x35 +1 x44 +1 x61 +1 x65 +1 x74 +1 x84 +1 x85 +1 x95
  +1 x100 +1 x111 >= +1
 c44: +1 x9 +1 x11 +1 x18 +1 x21 +1 x39 +1 x45 +1 x46 +1 x58 +1 x63 +1 x64 +1 x69 +1 x70 +1 x73 +1 x75
  +1 x78 +1 x79 +1 x93 +1 x101 +1 x114 +1 x131 +1 x134 +1 x148 >= +1
 c45: +1 x2 +1 x11 +1 x18 +1 x20 +1 x27 +1 x29 +1 x38 +1 x48 +1 x51 +1 x59 +1 x63 +1 x100 +1 x113 +1 x116
  +1 x121 +1 x126 +1 x128 +1 x129 +1 x130 +1 x133 +1 x137 +1 x143 >= +1
 c46: +1 x7 +1 x15 +1 x29 +1 x35 +1 x44 +1 x55 +1 x61 +1 x66 +1 x76 +1 x78 +1 x82 +1 x84 +1 x86 +1 x88
  +1 x110 +1 x112 +1 x113 +1 x123 +1 x127 +1 x128 +1 x130 >= +1
 c47: +1 x1 +1 x15 +1 x42 +1 x50 +1 x69 +1 x87 +1 x91 +1 x104 +1 x122 +1 x124 +1 x134 +1 x143 +1 x144
  +1 x148 >= +1
 c48: +1 x6 +1 x26 +1 x28 +1 x36 +1 x37 +1 x43 +1 x46 +1 x56 +1 x60 +1 x73 +1 x74 +1 x76 +1 x84 +1 x112
  +1 x116 +1 x117 +1 x120 +1 x134 >= +1
 c49: +1 x5 +1 x16 +1 x38 +1 x48 +1 x57 +1 x85 +1 x104 +1 x106 +1 x111 +1 x125 +1 x130 +1 x132 +1 x134
  +1 x149 >= +1
 c50: +1 x7 +1 x19 +1 x43 +1 x44 +1 x47 +1 x48 +1 x50 +1 x59 +1 x67 +1 x93 +1 x102 +1 x122 +1 x136 +1 x139
  +1 x140 +1 x144 +1 x148 >= +1
 c51: +1 x6 +1 x24 +1 x30 +1 x46 +1 x53 +1 x56 +1 x68 +1 x69 +1 x98 +1 x108 +1 x111 +1 x126 +1 x127 +1 x133
  >= +1
 c52: +1 x1 +1 x22 +1 x33 +1 x46 +1 x48 +1 x83 +1 x100 +1 x107 +1 x115 +1 x123 >= +1
 c53: +1 x9 +1 x17 +1 x24 +1 x25 +1 x27 +1 x34 +1 x40 +1 x55 +1 x57 +1 x69 +1 x70 +1 x74 +1 x82 +1 x90
  +1 x93 +1 x94 +1 x105 +1 x112 +1 x118 +1 x139 +1 x142 +1 x149 >= +1
 c54: +1 x5 +1 x14 +1 x29 +1 x35 +1 x72 +1 x100 +1 x109 +1 x118 +1 x119 +1 x124 >= +1
 c55: +1 x6 +1 x18 +1 x21 +1 x29 +1 x34 +1 x49 +1 x63 +1 x68 +1 x69 +1 x81 +1 x94 +1 x99 +1 x105 +1 x125
  +1 x126 +1 x143 +1 x147 +1 x149 >= +1
 c56: +1 x1 +1 x12 +1 x20 +1 x31 +1 x39 +1 x42 +1 x45 +1 x58 +1 x59 +1 x60 +1 x78 +1 x80 +1 x88 +1 x92
  +1 x98 +1 x120 +1 x121 >= +1
 c57: +1 x8 +1 x20 +1 x31 +1 x33 +1 x60 +1 x62 +1 x65 +1 x72 +1 x75 +1 x90 +1 x98 +1 x103 +1 x105 +1 x115
  +1 x137 +1 x138 +1 x147 >= +1
 c58: +1 x0 +1 x23 +1 x32 +1 x47 +1 x50 +1 x78 +1 x80 +1 x92 +1 x106 +1 x114 +1 x132 +1 x145 +1 x149 >= +1
 c59: +1 x6 +1 x10 +1 x25 +1 x37 +1 x48 +1 x51 +1 x52 +1 x53 +1 x61 +1 x64 +1 x82 +1 x88 +1 x94 +1 x101
  +1 x113 +1 x114 +1 x120 +1 x137 >= +1
 c60: +1 x2 +1 x13 +1 x19 +1 x37 +1 x52 +1 x63 +1 x66 +1 x77 +1 x85 +1 x92 +1 x102 +1 x114 +1 x133 +1 x145
  +1 x147 >= +1
 c61: +1 x7 +1 x23 +1 x25 +1 x34 +1 x37 +1 x39 +1 x44 +1 x55 +1 x59 +1 x61 +1 x70 +1 x85 +1 x108 +1 x113
  +1 x114 +1 x122 +1 x139 >= +1
 c62: +1 x0 +1 x21 +1 x22 +1 x24 +1 x37 +1 x39 +1 x57 +1 x58 +1 x59 +1 x66 +1 x71 +1 x74 +1 x82 +1 x86
  +1 x114 +1 x118 +1 x120 +1 x128 +1 x144 +1 x147 >= +1
 c63: +1 x5 +1 x44 +1 x48 +1 x60 +1 x67 +1 x78 +1 x105 +1 x109 +1 x119 +1 x137 >= +1
 c64: +1 x2 +1 x12 +1 x14 +1 x24 +1 x25 +1 x28 +1 x29 +1 x51 +1 x55 +1 x58 +1 x83 +1 x87 +1 x88 +1 x118
  +1 x119 +1 x127 +1 x142 +1 x143 >= +1
 c65: +1 x2 +1 x13 +1 x27 +1 x41 +1 x45 +1 x63 +1 x67 +1 x81 +1 x82 +1 x100 +1 x102 +1 x113 +1 x117 +1 x133
  +1 x142 +1 x148 >= +1
 c66: +1 x1 +1 x45 +1 x51 +1 x63 +1 x69 +1 x81 +1 x83 +1 x95 +1 x123 +1 x132 +1 x137 +1 x138 >= +1
 c67: +1 x8 +1 x10 +1 x11 +1 x14 +1 x23 +1 x38 +1 x49 +1 x61 +1 x75 +1 x86 +1 x95 +1 x97 +1 x99 +1 x115
  +1 x128 +1 x131 +1 x138 +1 x140 >= +1
 c68: +1 x8 +1 x11 +1 x23 +1 x35 +1 x38 +1 x40 +1 x60 +1 x68 +1 x71 +1 x81 +1 x94 +1 x95 +1 x97 +1 x101
  +1 x104 +1 x111 +1 x113 +1 x126 +1 x129 +1 x142 >= +1
 c69: +1 x9 +1 x25 +1 x46 +1 x48 +1 x52 +1 x61 +1 x72 +1 x90 +1 x93 +1 x94 +1 x101 +1 x110 +1 x115 >= +1
 c70: +1 x1 +1 x43 +1 x65 +1 x73 +1 x100 +1 x118 +1 x134 +1 x141 +1 x142 >= +1
 c71: +1 x6 +1 x12 +1 x34 +1 x42 +1 x47 +1 x56 +1 x57 +1 x65 +1 x68 +1 x72 +1 x75 +1 x83 +1 x99 +1 x130
  +1 x138 +1 x141 +1 x143 +1 x147 >= +1
 c72: +1 x4 +1 x20 +1 x42 +1 x60 +1 x65 +1 x69 +1 x70 +1 x95 +1 x96 +1 x102 +1 x103 +1 x119 +1 x143 >= +1
 c73: +1 x0 +1 x11 +1 x12 +1 x18 +1 x24 +1 x56 +1 x70 +1 x71 +1 x75 +1 x79 +1 x82 +1 x86 +1 x89 +1 x92
  +1 x101 +1 x113 +1 x142 +1 x144 +1 x145 >= +1
 c74: +1 x1 +1 x12 +1 x18 +1 x33 +1 x39 +1 x41 +1 x44 +1 x47 +1 x71 +1 x84 +1 x95 +1 x116 +1 x134 +1 x144
  +1 x145 >= +1
 c75: +1 x1 +1 x28 +1 x37 +1 x40 +1 x55 +1 x56 +1 x58 +1 x67 +1 x69 +1 x70 +1 x101 +1 x112 +1 x123 >= +1
 c76: +1 x5 +1 x29 +1 x44 +1 x50 +1 x55 +1 x58 +1 x63 +1 x84 +1 x92 +1 x102 +1 x129 >= +1
 c77: +1 x9 +1 x18 +1 x38 +1 x57 +1 x69 +1 x71 +1 x76 +1 x87 +1 x98 +1 x102 +1 x118 +1 x121 +1 x138 +1 x145
  +1 x147 +1 x148 >= +1
 c78: +1 x0 +1 x23 +1 x31 +1 x44 +1 x49 +1 x96 +1 x127 +1 x140 +1 x147 >= +1
 c79: +1 x9 +1 x31 +1 x39 +1 x46 +1 x59 +1 x65 +1 x81 +1 x83 +1 x88 +1 x98 +1 x125 +1 x130 +1 x135 >= +1
 c80: +1 x1 +1 x14 +1 x47 +1 x55 +1 x77 +1 x87 +1 x93 +1 x116 +1 x119 +1 x125 +1 x128 +1 x146 >= +1
 c81: +1 x2 +1 x36 +1 x60 +1 x86 +1 x99 +1 x115 +1 x129 +1 x131 +1 x137 +1 x142 +1 x145 >= +1
 c82: +1 x9 +1 x11 +1 x12 +1 x17 +1 x27 +1 x29 +1 x34 +1 x46 +1 x48 +1 x59 +1 x66 +1 x86 +1 x88 +1 x97
  +1 x114 +1 x119 +1 x135 +1 x143 >= +1
 c83: +1 x2 +1 x12 +1 x31 +1 x39 +1 x45 +1 x66 +1 x67 +1 x73 +1 x74 +1 x78 +1 x89 +1 x110 +1 x125 >= +1
 c84: +1 x6 +1 x21 +1 x24 +1 x26 +1 x41 +1 x44 +1 x61 +1 x64 +1 x77 +1 x107 +1 x117 +1 x120 >= +1
 c85: +1 x2 +1 x15 +1 x20 +1 x22 +1 x28 +1 x46 +1 x83 +1 x86 +1 x98 +1 x113 +1 x117 +1 x131 +1 x132 +1 x134
  +1 x139 +1 x143 >= +1
 c86: +1 x5 +1 x18 +1 x66 +1 x70 +1 x80 +1 x86 +1 x102 +1 x110 +1 x119 +1 x133 +1 x144 +1 x146 +1 x149
  >= +1
 c87: +1 x2 +1 x22 +1 x23 +1 x59 +1 x65 +1 x78 +1 x81 +1 x99 +1 x108 +1 x110 +1 x119 +1 x122 +1 x123 +1 x127
  +1 x134 >= +1
 c88: +1 x6 +1 x15 +1 x22 +1 x28 +1 x39 +1 x44 +1 x50 +1 x53 +1 x58 +1 x59 +1 x83 +1 x93 +1 x112 +1 x128
  +1 x141 >= +1
 c89: +1 x2 +1 x35 +1 x44 +1 x52 +1 x66 +1 x70 +1 x88 +1 x101 +1 x126 +1 x134 +1 x136 >= +1
 c90: +1 x5 +1 x25 +1 x27 +1 x54 +1 x63 +1 x73 +1 x86 +1 x87 +1 x90 +1 x126 +1 x141 +1 x144 >= +1
 c91: +1 x2 +1 x16 +1 x37 +1 x52 +1 x66 +1 x68 +1 x81 +1 x87 +1 x90 +1 x109 +1 x111 +1 x133 >= +1
 c92: +1 x6 +1 x28 +1 x37 +1 x40 +1 x52 +1 x75 +1 x88 +1 x95 +1 x96 +1 x108 +1 x111 +1 x113 +1 x118 +1 x133
  +1 x137 +1 x141 >= +1
 c93: +1 x1 +1 x10 +1 x17 +1 x51 +1 x61 +1 x67 +1 x76 +1 x78 +1 x86 +1 x116 +1 x122 +1 x132 +1 x135 +1 x139
  +1 x148 >= +1
 c94: +1 x3 +1 x11 +1 x22 +1 x36 +1 x41 +1 x43 +1 x71 +1 x72 +1 x81 +1 x91 +1 x112 +1 x119 +1 x131 +1 x141
  +1 x145 >= +1
 c95: +1 x1 +1 x18 +1 x24 +1 x51 +1 x52 +1 x58 +1 x64 +1 x65 +1 x85 +1 x102 +1 x105 +1 x106 >= +1
 c96: +1 x4 +1 x14 +1 x25 +1 x27 +1 x29 +1 x45 +1 x68 +1 x69 +1 x82 +1 x83 +1 x96 +1 x106 +1 x116 +1 x128
  >= +1
 c97: +1 x7 +1 x11 +1 x30 +1 x35 +1 x36 +1 x59 +1 x71 +1 x105 +1 x122 +1 x124 +1 x127 +1 x128 +1 x140
  +1 x141 +1 x147 >= +1
 c98: +1 x0 +1 x15 +1 x16 +1 x25 +1 x26 +1 x42 +1 x53 +1 x57 +1 x62 +1 x69 +1 x72 +1 x82 +1 x93 +1 x116
  +1 x118 +1 x145 +1 x148 >= +1
 c99: +1 x4 +1 x26 +1 x33 +1 x35 +1 x59 +1 x91 +1 x99 +1 x102 +1 x118 +1 x122 +1 x130 +1 x134 +1 x142
  +1 x144 +1 x149 >= +1
Bounds
 0 <= x0 <= 1
 0 <= x1 <= 1
 0 <= x2 <= 1
 0 <= x3 <= 1
 0 <= x4 <= 1
 0 <= x5 <= 1
 0 <= x6 <= 1
 0 <= x7 <= 1
 0 <= x8 <= 1
 0 <= x9 <= 1
 0 <= x10 <= 1
 0 <= x11 <= 1
 0 <= x12 <= 1
 0 <= x13 <= 1
 0 <= x14 <= 1
 0 <= x15 <= 1
 0 <= x16 <= 1
 0 <= x17 <= 1
 0 <= x18 <= 1
 0 <= x19 <= 1
 0 <= x20 <= 1
 0 <= x21 <= 1
 0 <= x22 <= 1
 0 <= x23 <= 1
 0 <= x24 <= 1
 0 <= x25 <= 1
 0 <= x26 <= 1
 0 <= x27 <= 1
 0 <= x28 <= 1
 0 <= x29 <= 1
 0 <= x30 <= 1
 0 <= x31 <= 1
 0 <= x32 <= 1
 0 <= x33 <= 1
 0 <= x34 <= 1
 0 <= x35 <= 1
 0 <= x36 <= 1
 0 <= x37 <= 1
 0 <= x38 <= 1
 0 <= x39 <= 1
 0 <= x40 <= 1
 0 <= x41 <= 1
 0 <= x42 <= 1
 0 <= x43 <= 1
 0 <= x44 <= 1
 0 <= x45 <= 1
 0 <= x46 <= 1
 0 <= x47 <= 1
 0 <= x48 <= 1
 0 <= x49 <= 1
 0 <= x50 <= 1
 0 <= x51 <= 1
 0 <= x52 <= 1
 0 <= x53 <= 1
 0 <= x54 <= 1
 0 <= x55 <= 1
 0 <= x56 <= 1
 0 <= x57 <= 1
 0 <= x58 <= 1
 0 <= x59 <= 1
 0 <= x60 <= 1
 0 <= x61 <= 1
 0 <= x62 <= 1
 0 <= x63 <= 1
 0 <= x64 <= 1
 0 <= x65 <= 1
 0 <= x66 <= 1
 0 <= x67 <= 1
 0 <= x68 <= 1
 0 <= x69 <= 1
 0 <= x70 <= 1
 0 <= x71 <= 1
 0 <= x72 <= 1
 0 <= x73 <= 1
 0 <= x74 <= 1
 0 <= x75 <= 1
 0 <= x76 <= 1
 0 <= x77 <= 1
 0 <= x78 <= 1
 0 <= x79 <= 1
 0 <= x80 <= 1
 0 <= x81 <= 1
 0 <= x82 <= 1
 0 <= x83 <= 1
 0 <= x84 <= 1
 0 <= x85 <= 1
 0 <= x86 <= 1
 0 <= x87 <= 1
 0 <= x88 <= 1
 0 <= x89 <= 1
 0 <= x90 <= 1
 0 <= x91 <= 1
 0 <= x92 <= 1
 0 <= x93 <= 1
 0 <= x94 <= 1
 0 <= x95 <= 1
 0 <= x96 <= 1
 0 <= x97 <= 1
 0 <= x98 <= 1
 0 <= x99 <= 1
 0 <= x100 <= 1
 0 <= x101 <= 1
 0 <= x102 <= 1
 0 <= x103 <= 1
 0 <= x104 <= 1
 0 <= x105 <= 1
 0 <= x106 <= 1
 0 <= x107 <= 1
 0 <= x108 <= 1
 0 <= x109 <= 1
 0 <= x110 <= 1
 0 <= x111 <= 1
 0 <= x112 <= 1
 0 <= x113 <= 1
 0 <= x114 <= 1
 0 <= x115 <= 1
 0 <= x116 <= 1
 0 <= x117 <= 1
 0 <= x118 <= 1
 0 <= x119 <= 1
 0 <= x120 <= 1
 0 <= x121 <= 1
 0 <= x122 <= 1
 0 <= x123 <= 1
 0 <= x124 <= 1
 0 <= x125 <= 1
 0 <= x126 <= 1
 0 <= x127 <= 1
 0 <= x128 <= 1
 0 <= x129 <= 1
 0 <= x130 <= 1
 0 <= x131 <= 1
 0 <= x132 <= 1
 0 <= x133 <= 1
 0 <= x134 <= 1
 0 <= x135 <= 1
 0 <= x136 <= 1
 0 <= x137 <= 1
 0 <= x138 <= 1
 0 <= x139 <= 1
 0 <= x140 <= 1
 0 <= x141 <= 1
 0 <= x142 <= 1
 0 <= x143 <= 1
 0 <= x144 <= 1
 0 <= x145 <= 1
 0 <= x146 <= 1
 0 <= x147 <= 1
 0 <= x148 <= 1
 0 <= x149 <= 1
Binaries
 x0 x1 x2 x3 x4 x5 x6 x7 x8 x9 x10 x11 x12 x13 x14 x15 x16 x17 x18 x19 x20 x21 x22 x23 x24 x25 x26 x27
 x28 x29 x30 x31 x32 x33 x34 x35 x36 x37 x38 x39 x40 x41 x42 x43 x44 x45 x46 x47 x48 x49 x50 x51 x52 x53
 x54 x55 x56 x57 x58 x59 x60 x61 x62 x63 x64 x65 x66 x67 x68 x69 x70 x71 x72 x73 x74 x75 x76 x77 x78 x79
 x80 x81 x82 x83 x84 x85 x86 x87 x88 x89 x90 x91 x92 x93 x94 x95 x96 x97 x98 x99 x100 x101 x102 x103 x104
 x105 x106 x107 x108 x109 x110 x111 x112 x113 x114 x115 x116 x117 x118 x119 x120 x121 x122 x123 x124 x125
 x126 x127 x128 x129 x130 x131 x132 x133 x134 x135 x136 x137 x138 x139 x140 x141 x142 x143 x144 x145 x146
 x147 x148 x149
End
